120
150
54
43
56
52
53
51
42
57
57
45
56
56
60
42
55
47
53
46
51
54
49
55
43
60
49
52
48
48
54
45
60
42
55
41
58
49
60
42
54
51
47
53
48
49
48
48
47
52
54
44
53
55
45
45
60
58
52
43
42
52
58
58
42
50
42
41
45
57
60
45
54
51
48
45
45
50
42
58
59
49
52
40
58
57
48
50
45
47
54
42
54
45
42
54
42
54
40
54
54
53
52
58
45
59
48
47
50
60
54
50
46
45
43
42
54
48
48
47
51
52
